unknown
(model
; cardinality of BoundSet is 3
(declare-sort BoundSet 0)
; rep: @uc_BoundSet_0
; rep: @uc_BoundSet_1
; rep: @uc_BoundSet_2
; cardinality of UnboundSet is 1
(declare-sort UnboundSet 0)
(declare-fun groundTerm_4 () UnboundSet)
(define-fun IsMale ((BOUND_VARIABLE_472 BoundSet)) Bool true)
(define-fun IsSinging ((BOUND_VARIABLE_472 BoundSet)) Bool true)
(define-fun IsInPoorlyLitRoom ((BOUND_VARIABLE_472 BoundSet)) Bool true)
(define-fun IsIndoors ((BOUND_VARIABLE_472 BoundSet)) Bool false)
)
unsat
(error "Cannot get model unless immediately preceded by SAT/NOT_ENTAILED or UNKNOWN response.")
